;(set-option :produce-unsat-cores true )
(set-logic ALL_SUPPORTED )
(declare-sort A$ 0 )
(declare-sort Nat$ 0 )
(declare-sort A_a_fun$ 0 )
(declare-sort A_llist_a_llist_fun$ 0 )
(declare-sort A_llist$ 0)
(declare-fun lNil$ ()A_llist$)
(declare-fun lhd$ (A_llist$)A$)
(declare-fun ltl$ (A_llist$)A_llist$)
(declare-fun lCons$ (A$ A_llist$ )A_llist$)
(declare-datatypes ()((Nat_option$ (none$ )(some$ (the$ Nat$ )))(Enat$ (abs_enat$ (rep_enat$ Nat_option$ )))))
(declare-fun n$ ()Enat$ )
(declare-fun xs$ ()A_llist$ )
(declare-fun min$ (Enat$ Enat$ )Enat$ )
(declare-fun lmap$ (A_a_fun$ A_llist$ )A_llist$ )
(declare-fun zero$ ()Enat$ )
(declare-fun ldrop$ (Enat$ )A_llist_a_llist_fun$ )
(declare-fun lnull$ (A_llist$ )Bool )
(declare-fun ltake$ (Enat$ )A_llist_a_llist_fun$ )
(declare-fun fun_app$ (A_llist_a_llist_fun$ A_llist$ )A_llist$ )
(declare-fun lappend$ (A_llist$ )A_llist_a_llist_fun$ )
(declare-fun lfinite$ (A_llist$ )Bool )
(declare-fun lprefix$ (A_llist$ A_llist$ )Bool )
(assert (! (not (= (fun_app$ (lappend$ (fun_app$ (ltake$ n$ )xs$ ))(fun_app$ (ldrop$ n$ )xs$ ))xs$ )):named a0 ))
(assert (! (forall ((?v0 A_llist$ )(?v1 A_llist$ )(?v2 A_llist$ ))(= (fun_app$ (lappend$ (fun_app$ (lappend$ ?v0 )?v1 ))?v2 )(fun_app$ (lappend$ ?v0 )(fun_app$ (lappend$ ?v1 )?v2 )))):named a1 ))
(assert (! (forall ((?v0 A_llist$ ))(= (fun_app$ (ldrop$ zero$ )?v0 )?v0 )):named a2 ))
(assert (! (forall ((?v0 Enat$ ))(! (= (fun_app$ (ldrop$ ?v0 )lNil$ )lNil$ ):pattern ((ldrop$ ?v0 )))):named a3 ))
(assert (! (forall ((?v0 Enat$ )(?v1 A_a_fun$ )(?v2 A_llist$ ))(= (fun_app$ (ltake$ ?v0 )(lmap$ ?v1 ?v2 ))(lmap$ ?v1 (fun_app$ (ltake$ ?v0 )?v2 )))):named a4 ))
(assert (! (forall ((?v0 Enat$ ))(! (= (fun_app$ (ltake$ ?v0 )lNil$ )lNil$ ):pattern ((ltake$ ?v0 )))):named a5 ))
(assert (! (forall ((?v0 Enat$ )(?v1 A_llist$ ))(lprefix$ (fun_app$ (ltake$ ?v0 )?v1 )?v1 )):named a6 ))
(assert (! (forall ((?v0 A_llist$ ))(! (= (fun_app$ (lappend$ ?v0 )lNil$ )?v0 ):pattern ((lappend$ ?v0 )))):named a7 ))
(assert (! (forall ((?v0 A_llist$ ))(! (= (fun_app$ (lappend$ lNil$ )?v0 )?v0 ):pattern ((fun_app$ (lappend$ lNil$ )?v0 )))):named a8 ))
(assert (! (forall ((?v0 A_llist$ )(?v1 A_llist$ ))(= (lfinite$ (fun_app$ (lappend$ ?v0 )?v1 ))(and (lfinite$ ?v0 )(lfinite$ ?v1 )))):named a9 ))
(assert (! (forall ((?v0 A_llist$ )(?v1 A_llist$ ))(= (not (lnull$ (fun_app$ (lappend$ ?v0 )?v1 )))(or (not (lnull$ ?v0 ))(not (lnull$ ?v1 ))))):named a10 ))
(assert (! (forall ((?v0 A_llist$ )(?v1 A_llist$ ))(= (lnull$ (fun_app$ (lappend$ ?v0 )?v1 ))(and (lnull$ ?v0 )(lnull$ ?v1 )))):named a11 ))
(assert (! (forall ((?v0 A$ )(?v1 A_llist$ )(?v2 A_llist$ ))(! (= (fun_app$ (lappend$ (lCons$ ?v0 ?v1 ))?v2 )(lCons$ ?v0 (fun_app$ (lappend$ ?v1 )?v2 ))):pattern ((fun_app$ (lappend$ (lCons$ ?v0 ?v1 ))?v2 )))):named a12 ))
(assert (! (forall ((?v0 Enat$ )(?v1 Enat$ )(?v2 A_llist$ ))(= (fun_app$ (ltake$ ?v0 )(fun_app$ (ltake$ ?v1 )?v2 ))(fun_app$ (ltake$ (min$ ?v0 ?v1 ))?v2 ))):named a13 ))
(assert (! (forall ((?v0 A_llist$ ))(lprefix$ ?v0 ?v0 )):named a14 ))
(assert (! (forall ((?v0 A_llist$ ))(lprefix$ ?v0 ?v0 )):named a15 ))
(assert (! (forall ((?v0 A$ )(?v1 A_llist$ )(?v2 A$ )(?v3 A_llist$ ))(= (= (lCons$ ?v0 ?v1 )(lCons$ ?v2 ?v3 ))(and (= ?v0 ?v2 )(= ?v1 ?v3 )))):named a16 ))
(assert (! (forall ((?v0 A$ )(?v1 A_llist$ )(?v2 A$ )(?v3 A_llist$ ))(! (= (lprefix$ (lCons$ ?v0 ?v1 )(lCons$ ?v2 ?v3 ))(and (= ?v0 ?v2 )(lprefix$ ?v1 ?v3 ))):pattern ((lprefix$ (lCons$ ?v0 ?v1 )(lCons$ ?v2 ?v3 ))))):named a17 ))
(check-sat )
;(get-unsat-core )
